c defined variables: 33 34 35 36 37 38 39 40 41 42 43 44 45 46 47 48 49 50 51 52 53 54 55 56 57 58 59 60 61 62 63 64 65 66 67 68 69 70 71 72 73 74 75 76 77 78 79 80 81 82 83 84 85 86 87 88 89 90 91 92 93 94 95 96 97 98 99 100 101 102 103 104 105 106 107 108 109 110 111 112 113 114 115 116 117 118 119 120 121 122 123 124 125 126 127 128 129 130 131 132 133 134 135 136 137 138 139 140 141 142 143 144 145 146 147 148 149 150 151 152 153 154 155 156 157 158 159 160 161 162 163 164 165 166 167 194 197 198 199 200 201 202 203 204 205 206 207 208 209 210 211 212 213 214 215 216 217 218 219 220 221 222 223 224 225 226 227 228 229 230 231 232 233 234 235 236 237 238 239 240 241 242 243 244 246 247 248 249 251 252 253 255 256 257 258 260 261 262 263 264 265 266 267 268 269 270 271 272 273 274 275 276 277 278 279 280 281 282 283 284 285 286 287 288 289 290 291 292 293 294 295 296 297 298 299 300 301 302 303 304 305 306 307 308 309 310 311 312 313 314 315 316 317 318 319 320 321 322 323 324 325 326 327 328 329 330 331 332 
p cnf 1480 2249
a 1 2 3 4 5 6 7 8 9 10 11 12 13 14 15 16 17 18 19 20 21 22 23 24 25 26 27 28 29 30 31 32 174 175 176 177 178 179 180 181 182 183 184 185 186 187 188 189 190 191 0
e 33 34 35 36 37 38 39 40 41 42 43 44 45 46 47 48 49 50 51 52 53 54 55 56 57 58 59 60 61 62 63 64 65 66 67 68 69 70 71 72 73 74 75 76 77 78 79 80 81 82 83 84 85 86 87 88 89 90 91 92 93 94 95 96 97 98 99 100 101 102 103 104 105 106 107 108 109 110 111 112 113 114 115 116 117 118 119 120 121 122 123 124 125 126 127 128 129 130 131 132 133 134 135 136 137 138 139 140 141 142 143 144 145 146 147 148 149 150 151 152 153 154 155 156 157 158 159 160 161 162 163 164 165 166 167 194 197 198 199 200 201 202 203 204 205 206 207 208 209 210 211 212 213 214 215 216 217 218 219 220 221 222 223 224 225 226 227 228 229 230 231 232 233 234 235 236 237 238 239 240 241 242 243 244 246 247 248 249 251 252 253 255 256 257 258 260 261 262 263 264 265 266 267 268 269 270 271 272 273 274 275 276 277 278 279 280 281 282 283 284 285 286 287 288 289 290 291 292 293 294 295 296 297 298 299 300 301 302 303 304 305 306 307 308 309 310 311 312 313 314 315 316 317 318 319 320 321 322 323 324 325 326 327 328 329 330 331 332 1197 1198 1199 1200 1201 1202 1203 1204 1205 1206 1207 1208 1209 1210 1211 1212 1213 1214 1215 1216 1217 1218 1219 1220 1221 1222 1223 1224 1225 1226 1227 1228 1229 1230 1231 1232 1233 1234 1235 1236 1237 1238 1239 1240 1241 1242 1243 1244 1245 1246 1247 1248 1249 1250 1251 1252 1253 1254 1255 1256 1257 1258 1259 1260 1261 1262 1263 1264 1265 1266 1267 1268 1269 1270 1271 1272 1273 1274 1275 1276 1277 1278 1279 1280 1281 1282 1283 1284 1285 1286 1287 1288 1289 1290 1291 1292 1293 1294 1295 1296 1297 1298 1299 1300 1301 1302 1303 1304 1305 1306 1307 1308 1309 1310 1311 1312 1313 1314 1315 1316 1317 1318 1319 1320 1321 1322 1323 1324 1325 1326 1327 1328 1329 1330 1331 1332 1333 1334 1335 1336 1337 1338 1339 1340 1341 1342 1343 1344 1345 1346 1347 1348 1349 1350 1351 1352 1353 1354 1355 1356 1357 1358 1359 1360 1361 1362 1363 1364 1365 1366 1367 1368 1369 1370 1371 1372 1373 1374 1375 1376 1377 1378 1379 1380 1381 1382 1383 1384 1385 1386 1387 1388 1389 1390 1391 1392 1393 1394 1395 1396 1397 1398 1399 1400 1401 1402 1403 1404 1405 1406 1407 1408 1409 1410 1411 1412 1413 1414 1415 1416 1417 1418 1419 1420 1421 1422 1423 1424 1425 1426 1427 1428 1429 1430 1431 1432 1433 1434 1435 1436 1437 1438 1439 1440 1441 1442 1443 1444 1445 1446 1447 1448 1449 1450 1451 1452 1453 1454 1455 1456 1457 1458 1459 1460 1461 1462 1463 1464 1465 1466 1467 1468 1469 1470 1471 1472 1473 1474 1475 1476 1477 1478 1479 1480 0
d 168 184 185 186 187 188 189 190 191 0
d 169 184 185 186 187 188 189 190 191 0
d 170 174 175 0
d 171 176 177 178 179 180 181 182 183 0
d 172 176 177 178 179 180 181 182 183 0
d 173 176 177 178 179 180 181 182 183 0
d 192 1 2 3 4 5 6 7 8 9 10 11 12 13 14 15 16 17 18 19 20 21 22 23 24 25 26 27 28 29 30 31 32 174 175 176 177 178 179 180 181 182 183 184 185 186 187 188 189 190 191 0
d 193 1 2 3 4 5 6 7 8 9 10 11 12 13 14 15 16 17 18 19 20 21 22 23 24 25 26 27 28 29 30 31 32 174 175 176 177 178 179 180 181 182 183 184 185 186 187 188 189 190 191 0
d 195 1 2 3 4 5 6 7 8 9 10 11 12 13 14 15 16 17 18 19 20 21 22 23 24 25 26 27 28 29 30 31 32 174 175 176 177 178 179 180 181 182 183 184 185 186 187 188 189 190 191 0
d 196 1 2 3 4 5 6 7 8 9 10 11 12 13 14 15 16 17 18 19 20 21 22 23 24 25 26 27 28 29 30 31 32 174 175 176 177 178 179 180 181 182 183 184 185 186 187 188 189 190 191 0
d 245 1 2 3 4 5 6 7 8 9 10 11 12 13 14 15 16 17 18 19 20 21 22 23 24 25 26 27 28 29 30 31 32 174 175 176 177 178 179 180 181 182 183 184 185 186 187 188 189 190 191 0
d 250 1 2 3 4 5 6 7 8 9 10 11 12 13 14 15 16 17 18 19 20 21 22 23 24 25 26 27 28 29 30 31 32 174 175 176 177 178 179 180 181 182 183 184 185 186 187 188 189 190 191 0
d 254 1 2 3 4 5 6 7 8 9 10 11 12 13 14 15 16 17 18 19 20 21 22 23 24 25 26 27 28 29 30 31 32 174 175 176 177 178 179 180 181 182 183 184 185 186 187 188 189 190 191 0
d 259 1 2 3 4 5 6 7 8 9 10 11 12 13 14 15 16 17 18 19 20 21 22 23 24 25 26 27 28 29 30 31 32 174 175 176 177 178 179 180 181 182 183 184 185 186 187 188 189 190 191 0
1198 -33 0
-1198 33 0
1199 -34 0
-1199 34 0
-1200 -35 0
1200 35 0
1201 -36 0
-1201 36 0
1202 -37 0
-1202 37 0
-1203 -38 0
1203 38 0
1204 -39 0
-1204 39 0
1205 -40 0
-1205 40 0
-1206 -41 0
1206 41 0
-12 -42 0
12 42 0
-1207 -43 0
1207 43 0
-11 -44 0
11 44 0
-1208 -45 0
1208 45 0
-10 -46 0
10 46 0
-1209 -47 0
1209 47 0
-9 -48 0
9 48 0
-1210 -49 0
1210 49 0
-49 -50 0
49 50 0
1211 -51 0
-1211 51 0
1213 -52 0
-1213 52 0
1215 -53 0
-1215 53 0
-1218 -54 0
1218 54 0
1219 -55 0
-1219 55 0
1220 -56 0
-1220 56 0
-1221 -57 0
1221 57 0
1222 -58 0
-1222 58 0
1223 -59 0
-1223 59 0
1224 -60 0
-1224 60 0
1225 -61 0
-1225 61 0
-1226 -62 0
1226 62 0
1227 -63 0
-1227 63 0
1228 -64 0
-1228 64 0
-1229 -65 0
1229 65 0
1230 -66 0
-1230 66 0
1231 -67 0
-1231 67 0
-1232 -68 0
1232 68 0
1233 -69 0
-1233 69 0
1234 -70 0
-1234 70 0
-1235 -71 0
1235 71 0
-8 -72 0
8 72 0
-1236 -73 0
1236 73 0
-7 -74 0
7 74 0
-1237 -75 0
1237 75 0
-6 -76 0
6 76 0
-1238 -77 0
1238 77 0
-5 -78 0
5 78 0
-1239 -79 0
1239 79 0
-79 -80 0
79 80 0
1240 -81 0
-1240 81 0
1242 -82 0
-1242 82 0
1244 -83 0
-1244 83 0
-1247 -84 0
1247 84 0
1248 -85 0
-1248 85 0
1249 -86 0
-1249 86 0
-1250 -87 0
1250 87 0
1251 -88 0
-1251 88 0
1252 -89 0
-1252 89 0
1253 -90 0
-1253 90 0
1254 -91 0
-1254 91 0
-1255 -92 0
1255 92 0
1256 -93 0
-1256 93 0
1257 -94 0
-1257 94 0
-1258 -95 0
1258 95 0
1259 -96 0
-1259 96 0
1260 -97 0
-1260 97 0
-1261 -98 0
1261 98 0
1262 -99 0
-1262 99 0
1263 -100 0
-1263 100 0
-1264 -101 0
1264 101 0
-4 -102 0
4 102 0
-1265 -103 0
1265 103 0
-3 -104 0
3 104 0
-1266 -105 0
1266 105 0
-2 -106 0
2 106 0
-1267 -107 0
1267 107 0
-1 -108 0
1 108 0
-1268 -109 0
1268 109 0
-109 -110 0
109 110 0
1269 -111 0
-1269 111 0
1271 -112 0
-1271 112 0
1273 -113 0
-1273 113 0
-1276 -114 0
1276 114 0
1277 -115 0
-1277 115 0
1278 -116 0
-1278 116 0
-1279 -117 0
1279 117 0
1280 -118 0
-1280 118 0
1281 -119 0
-1281 119 0
1282 -120 0
-1282 120 0
1283 -121 0
-1283 121 0
-1284 -122 0
1284 122 0
1285 -123 0
-1285 123 0
1286 -124 0
-1286 124 0
-1287 -125 0
1287 125 0
1288 -126 0
-1288 126 0
1289 -127 0
-1289 127 0
-1290 -128 0
1290 128 0
1291 -129 0
-1291 129 0
1292 -130 0
-1292 130 0
-1293 -131 0
1293 131 0
-16 -132 0
16 132 0
-1294 -133 0
1294 133 0
-15 -134 0
15 134 0
-1295 -135 0
1295 135 0
-14 -136 0
14 136 0
-1296 -137 0
1296 137 0
-13 -138 0
13 138 0
-1297 -139 0
1297 139 0
-139 -140 0
139 140 0
1298 -141 0
-1298 141 0
1300 -142 0
-1300 142 0
1302 -143 0
-1302 143 0
-1305 -144 0
1305 144 0
1306 -145 0
-1306 145 0
1307 -146 0
-1307 146 0
-1308 -147 0
1308 147 0
1309 -148 0
-1309 148 0
1310 -149 0
-1310 149 0
-144 -150 0
144 150 0
-1311 -151 0
1311 151 0
-54 -152 0
54 152 0
-1312 -153 0
1312 153 0
-84 -154 0
84 154 0
-1313 -155 0
1313 155 0
-114 -156 0
114 156 0
-1314 -157 0
1314 157 0
-157 -158 0
157 158 0
1315 -159 0
-1315 159 0
1317 -160 0
-1317 160 0
1319 -161 0
-1319 161 0
-1322 -162 0
1322 162 0
1323 -163 0
-1323 163 0
1324 -164 0
-1324 164 0
-1325 -165 0
1325 165 0
1326 -166 0
-1326 166 0
1327 -167 0
-1327 167 0
-1328 -194 0
1328 194 0
-1329 -197 0
1329 197 0
1256 -198 0
-1256 198 0
1257 -199 0
-1257 199 0
-1330 -200 0
1330 200 0
1259 -201 0
-1259 201 0
1260 -202 0
-1260 202 0
-1331 -203 0
1331 203 0
1262 -204 0
-1262 204 0
1263 -205 0
-1263 205 0
-1332 -206 0
1332 206 0
-4 -207 0
4 207 0
-1333 -208 0
1333 208 0
-3 -209 0
3 209 0
-1334 -210 0
1334 210 0
-2 -211 0
2 211 0
-1335 -212 0
1335 212 0
-1 -213 0
1 213 0
-1336 -214 0
1336 214 0
-214 -215 0
214 215 0
1337 -216 0
-1337 216 0
1339 -217 0
-1339 217 0
1341 -218 0
-1341 218 0
-1344 -219 0
1344 219 0
1277 -220 0
-1277 220 0
1278 -221 0
-1278 221 0
-1345 -222 0
1345 222 0
1346 -223 0
-1346 223 0
1347 -224 0
-1347 224 0
1348 -225 0
-1348 225 0
1349 -226 0
-1349 226 0
-1350 -227 0
1350 227 0
1288 -228 0
-1288 228 0
1289 -229 0
-1289 229 0
-1351 -230 0
1351 230 0
1291 -231 0
-1291 231 0
1292 -232 0
-1292 232 0
-1352 -233 0
1352 233 0
-16 -234 0
16 234 0
-1353 -235 0
1353 235 0
-15 -236 0
15 236 0
-1354 -237 0
1354 237 0
-14 -238 0
14 238 0
-1355 -239 0
1355 239 0
-13 -240 0
13 240 0
-1356 -241 0
1356 241 0
-241 -242 0
241 242 0
1357 -243 0
-1357 243 0
1359 -244 0
-1359 244 0
-1362 -246 0
1362 246 0
1306 -247 0
-1306 247 0
1307 -248 0
-1307 248 0
-1363 -249 0
1363 249 0
1364 -251 0
-1364 251 0
-246 -252 0
246 252 0
-1365 -253 0
1365 253 0
-1366 -255 0
1366 255 0
-219 -256 0
219 256 0
-1367 -257 0
1367 257 0
-257 -258 0
257 258 0
1369 -260 0
-1369 260 0
1371 -261 0
-1371 261 0
-1374 -262 0
1374 262 0
1375 -263 0
-1375 263 0
1376 -264 0
-1376 264 0
-1377 -265 0
1377 265 0
1378 -266 0
-1378 266 0
1379 -267 0
-1379 267 0
1227 -268 0
-1227 268 0
1228 -269 0
-1228 269 0
-1380 -270 0
1380 270 0
-6 -271 0
6 271 0
-1381 -272 0
1381 272 0
1231 -273 0
-1231 273 0
1197 -274 0
-1197 274 0
1233 -275 0
-1233 275 0
1234 -276 0
-1234 276 0
-1382 -277 0
1382 277 0
-8 -278 0
8 278 0
-1383 -279 0
1383 279 0
-7 -280 0
7 280 0
-1384 -281 0
1384 281 0
-6 -282 0
6 282 0
-1385 -283 0
1385 283 0
-5 -284 0
5 284 0
-1386 -285 0
1386 285 0
1248 -286 0
-1248 286 0
1249 -287 0
-1249 287 0
-1387 -288 0
1387 288 0
-1197 -289 0
1197 289 0
1198 -290 0
-1198 290 0
1199 -291 0
-1199 291 0
-1388 -292 0
1388 292 0
1201 -293 0
-1201 293 0
1202 -294 0
-1202 294 0
-1389 -295 0
1389 295 0
1204 -296 0
-1204 296 0
1205 -297 0
-1205 297 0
-1390 -298 0
1390 298 0
-12 -299 0
12 299 0
-1391 -300 0
1391 300 0
-11 -301 0
11 301 0
-1392 -302 0
1392 302 0
-10 -303 0
10 303 0
-1393 -304 0
1393 304 0
-9 -305 0
9 305 0
-1394 -306 0
1394 306 0
1219 -307 0
-1219 307 0
1220 -308 0
-1220 308 0
-1395 -309 0
1395 309 0
1398 -310 0
-1398 310 0
1401 -311 0
-1401 311 0
1404 -312 0
-1404 312 0
1407 -313 0
-1407 313 0
1409 -314 0
-1409 314 0
1412 -315 0
-1412 315 0
1415 -316 0
-1415 316 0
1418 -317 0
-1418 317 0
1420 -318 0
-1420 318 0
-1426 -319 0
1426 319 0
1429 -320 0
-1429 320 0
-1432 -321 0
1432 321 0
1437 -322 0
-1437 322 0
1442 -323 0
-1442 323 0
1445 -324 0
-1445 324 0
1453 -325 0
-1453 325 0
1461 -326 0
-1461 326 0
1464 -327 0
-1464 327 0
1467 -328 0
-1467 328 0
-1471 -329 0
1471 329 0
-1474 -330 0
1474 330 0
-1477 -331 0
1477 331 0
1480 -332 0
-1480 332 0
-33 -11 0
-33 27 0
11 -27 33 0
-34 11 0
-34 -27 0
-11 27 34 0
-33 35 0
-34 35 0
-35 33 34 0
-36 -10 0
-36 26 0
10 -26 36 0
-37 10 0
-37 -26 0
-10 26 37 0
-36 38 0
-37 38 0
-38 36 37 0
-39 -9 0
-39 25 0
9 -25 39 0
-40 9 0
-40 -25 0
-9 25 40 0
-39 41 0
-40 41 0
-41 39 40 0
-12 -42 0
12 42 0
-42 43 0
-28 43 0
-43 42 28 0
-11 -44 0
11 44 0
-44 45 0
-27 45 0
-45 44 27 0
-10 -46 0
10 46 0
-46 47 0
-26 47 0
-47 46 26 0
-9 -48 0
9 48 0
-48 49 0
-25 49 0
-49 48 25 0
-49 -50 0
49 50 0
-51 -41 0
-51 -47 0
41 47 51 0
-52 -38 0
-52 -41 0
-52 -45 0
38 41 45 52 0
-53 -35 0
-53 -38 0
-53 -41 0
-53 -43 0
35 38 41 43 53 0
-50 54 0
-51 54 0
-52 54 0
-53 54 0
-54 50 51 52 53 0
-55 -12 0
-55 28 0
12 -28 55 0
-56 12 0
-56 -28 0
-12 28 56 0
-55 57 0
-56 57 0
-57 55 56 0
-58 -57 0
-58 -35 0
-58 -38 0
-58 -41 0
57 35 38 41 58 0
-59 -54 0
-59 -58 0
54 58 59 0
-60 -54 0
-60 59 0
54 -59 60 0
-61 54 0
-61 -59 0
-54 59 61 0
-60 62 0
-61 62 0
-62 60 61 0
-63 -7 0
-63 23 0
7 -23 63 0
-64 7 0
-64 -23 0
-7 23 64 0
-63 65 0
-64 65 0
-65 63 64 0
-66 -6 0
-66 22 0
6 -22 66 0
-67 6 0
-67 -22 0
-6 22 67 0
-66 68 0
-67 68 0
-68 66 67 0
-69 -5 0
-69 21 0
5 -21 69 0
-70 5 0
-70 -21 0
-5 21 70 0
-69 71 0
-70 71 0
-71 69 70 0
-8 -72 0
8 72 0
-72 73 0
-24 73 0
-73 72 24 0
-7 -74 0
7 74 0
-74 75 0
-23 75 0
-75 74 23 0
-6 -76 0
6 76 0
-76 77 0
-22 77 0
-77 76 22 0
-5 -78 0
5 78 0
-78 79 0
-21 79 0
-79 78 21 0
-79 -80 0
79 80 0
-81 -71 0
-81 -77 0
71 77 81 0
-82 -68 0
-82 -71 0
-82 -75 0
68 71 75 82 0
-83 -65 0
-83 -68 0
-83 -71 0
-83 -73 0
65 68 71 73 83 0
-80 84 0
-81 84 0
-82 84 0
-83 84 0
-84 80 81 82 83 0
-85 -8 0
-85 24 0
8 -24 85 0
-86 8 0
-86 -24 0
-8 24 86 0
-85 87 0
-86 87 0
-87 85 86 0
-88 -87 0
-88 -65 0
-88 -68 0
-88 -71 0
87 65 68 71 88 0
-89 -84 0
-89 -88 0
84 88 89 0
-90 -84 0
-90 89 0
84 -89 90 0
-91 84 0
-91 -89 0
-84 89 91 0
-90 92 0
-91 92 0
-92 90 91 0
-93 -3 0
-93 19 0
3 -19 93 0
-94 3 0
-94 -19 0
-3 19 94 0
-93 95 0
-94 95 0
-95 93 94 0
-96 -2 0
-96 18 0
2 -18 96 0
-97 2 0
-97 -18 0
-2 18 97 0
-96 98 0
-97 98 0
-98 96 97 0
-99 -1 0
-99 17 0
1 -17 99 0
-100 1 0
-100 -17 0
-1 17 100 0
-99 101 0
-100 101 0
-101 99 100 0
-4 -102 0
4 102 0
-102 103 0
-20 103 0
-103 102 20 0
-3 -104 0
3 104 0
-104 105 0
-19 105 0
-105 104 19 0
-2 -106 0
2 106 0
-106 107 0
-18 107 0
-107 106 18 0
-1 -108 0
1 108 0
-108 109 0
-17 109 0
-109 108 17 0
-109 -110 0
109 110 0
-111 -101 0
-111 -107 0
101 107 111 0
-112 -98 0
-112 -101 0
-112 -105 0
98 101 105 112 0
-113 -95 0
-113 -98 0
-113 -101 0
-113 -103 0
95 98 101 103 113 0
-110 114 0
-111 114 0
-112 114 0
-113 114 0
-114 110 111 112 113 0
-115 -4 0
-115 20 0
4 -20 115 0
-116 4 0
-116 -20 0
-4 20 116 0
-115 117 0
-116 117 0
-117 115 116 0
-118 -117 0
-118 -95 0
-118 -98 0
-118 -101 0
117 95 98 101 118 0
-119 -114 0
-119 -118 0
114 118 119 0
-120 -114 0
-120 119 0
114 -119 120 0
-121 114 0
-121 -119 0
-114 119 121 0
-120 122 0
-121 122 0
-122 120 121 0
-123 -15 0
-123 31 0
15 -31 123 0
-124 15 0
-124 -31 0
-15 31 124 0
-123 125 0
-124 125 0
-125 123 124 0
-126 -14 0
-126 30 0
14 -30 126 0
-127 14 0
-127 -30 0
-14 30 127 0
-126 128 0
-127 128 0
-128 126 127 0
-129 -13 0
-129 29 0
13 -29 129 0
-130 13 0
-130 -29 0
-13 29 130 0
-129 131 0
-130 131 0
-131 129 130 0
-16 -132 0
16 132 0
-132 133 0
-32 133 0
-133 132 32 0
-15 -134 0
15 134 0
-134 135 0
-31 135 0
-135 134 31 0
-14 -136 0
14 136 0
-136 137 0
-30 137 0
-137 136 30 0
-13 -138 0
13 138 0
-138 139 0
-29 139 0
-139 138 29 0
-139 -140 0
139 140 0
-141 -131 0
-141 -137 0
131 137 141 0
-142 -128 0
-142 -131 0
-142 -135 0
128 131 135 142 0
-143 -125 0
-143 -128 0
-143 -131 0
-143 -133 0
125 128 131 133 143 0
-140 144 0
-141 144 0
-142 144 0
-143 144 0
-144 140 141 142 143 0
-145 -16 0
-145 32 0
16 -32 145 0
-146 16 0
-146 -32 0
-16 32 146 0
-145 147 0
-146 147 0
-147 145 146 0
-148 -147 0
-148 -125 0
-148 -128 0
-148 -131 0
147 125 128 131 148 0
-149 -144 0
-149 -148 0
144 148 149 0
-144 -150 0
144 150 0
-150 151 0
-149 151 0
-151 150 149 0
-54 -152 0
54 152 0
-152 153 0
-59 153 0
-153 152 59 0
-84 -154 0
84 154 0
-154 155 0
-89 155 0
-155 154 89 0
-114 -156 0
114 156 0
-156 157 0
-119 157 0
-157 156 119 0
-157 -158 0
157 158 0
-159 -122 0
-159 -155 0
122 155 159 0
-160 -92 0
-160 -122 0
-160 -153 0
92 122 153 160 0
-161 -62 0
-161 -92 0
-161 -122 0
-161 -151 0
62 92 122 151 161 0
-158 162 0
-159 162 0
-160 162 0
-161 162 0
-162 158 159 160 161 0
-163 -144 0
-163 149 0
144 -149 163 0
-164 144 0
-164 -149 0
-144 149 164 0
-163 165 0
-164 165 0
-165 163 164 0
-166 -165 0
-166 -62 0
-166 -92 0
-166 -122 0
165 62 92 122 166 0
-167 -162 0
-167 -166 0
162 166 167 0
-192 -169 0
-192 168 0
169 -168 192 0
-193 169 0
-193 -168 0
-169 168 193 0
-192 194 0
-193 194 0
-194 192 193 0
-195 -172 0
-195 173 0
172 -173 195 0
-196 172 0
-196 -173 0
-172 173 196 0
-195 197 0
-196 197 0
-197 195 196 0
-198 -3 0
-198 19 0
3 -19 198 0
-199 3 0
-199 -19 0
-3 19 199 0
-198 200 0
-199 200 0
-200 198 199 0
-201 -2 0
-201 18 0
2 -18 201 0
-202 2 0
-202 -18 0
-2 18 202 0
-201 203 0
-202 203 0
-203 201 202 0
-204 -1 0
-204 17 0
1 -17 204 0
-205 1 0
-205 -17 0
-1 17 205 0
-204 206 0
-205 206 0
-206 204 205 0
-4 -207 0
4 207 0
-207 208 0
-20 208 0
-208 207 20 0
-3 -209 0
3 209 0
-209 210 0
-19 210 0
-210 209 19 0
-2 -211 0
2 211 0
-211 212 0
-18 212 0
-212 211 18 0
-1 -213 0
1 213 0
-213 214 0
-17 214 0
-214 213 17 0
-214 -215 0
214 215 0
-216 -206 0
-216 -212 0
206 212 216 0
-217 -203 0
-217 -206 0
-217 -210 0
203 206 210 217 0
-218 -200 0
-218 -203 0
-218 -206 0
-218 -208 0
200 203 206 208 218 0
-215 219 0
-216 219 0
-217 219 0
-218 219 0
-219 215 216 217 218 0
-220 -4 0
-220 20 0
4 -20 220 0
-221 4 0
-221 -20 0
-4 20 221 0
-220 222 0
-221 222 0
-222 220 221 0
-223 -222 0
-223 -200 0
-223 -203 0
-223 -206 0
222 200 203 206 223 0
-224 -219 0
-224 -223 0
219 223 224 0
-225 -219 0
-225 224 0
219 -224 225 0
-226 219 0
-226 -224 0
-219 224 226 0
-225 227 0
-226 227 0
-227 225 226 0
-228 -14 0
-228 30 0
14 -30 228 0
-229 14 0
-229 -30 0
-14 30 229 0
-228 230 0
-229 230 0
-230 228 229 0
-231 -13 0
-231 29 0
13 -29 231 0
-232 13 0
-232 -29 0
-13 29 232 0
-231 233 0
-232 233 0
-233 231 232 0
-16 -234 0
16 234 0
-234 235 0
-32 235 0
-235 234 32 0
-15 -236 0
15 236 0
-236 237 0
-31 237 0
-237 236 31 0
-14 -238 0
14 238 0
-238 239 0
-30 239 0
-239 238 30 0
-13 -240 0
13 240 0
-240 241 0
-29 241 0
-241 240 29 0
-241 -242 0
241 242 0
-243 -233 0
-243 -239 0
233 239 243 0
-244 -230 0
-244 -233 0
-244 -237 0
230 233 237 244 0
-245 -170 0
-245 -230 0
-245 -233 0
-245 -235 0
170 230 233 235 245 0
-242 246 0
-243 246 0
-244 246 0
-245 246 0
-246 242 243 244 245 0
-247 -16 0
-247 32 0
16 -32 247 0
-248 16 0
-248 -32 0
-16 32 248 0
-247 249 0
-248 249 0
-249 247 248 0
-250 -249 0
-250 -170 0
-250 -230 0
-250 -233 0
249 170 230 233 250 0
-251 -246 0
-251 -250 0
246 250 251 0
-246 -252 0
246 252 0
-252 253 0
-251 253 0
-253 252 251 0
-169 -254 0
169 254 0
-254 255 0
-168 255 0
-255 254 168 0
-219 -256 0
219 256 0
-256 257 0
-224 257 0
-257 256 224 0
-257 -258 0
257 258 0
-259 -227 0
-259 -171 0
227 171 259 0
-260 -197 0
-260 -227 0
-260 -255 0
197 227 255 260 0
-261 -194 0
-261 -197 0
-261 -227 0
-261 -253 0
194 197 227 253 261 0
-258 262 0
-259 262 0
-260 262 0
-261 262 0
-262 258 259 260 261 0
-263 -246 0
-263 251 0
246 -251 263 0
-264 246 0
-264 -251 0
-246 251 264 0
-263 265 0
-264 265 0
-265 263 264 0
-266 -265 0
-266 -194 0
-266 -197 0
-266 -227 0
265 194 197 227 266 0
-267 -262 0
-267 -266 0
262 266 267 0
-268 -7 0
-268 23 0
7 -23 268 0
-269 7 0
-269 -23 0
-7 23 269 0
-268 270 0
-269 270 0
-270 268 269 0
-6 -271 0
6 271 0
-22 272 0
-271 272 0
-272 22 271 0
-273 6 0
-273 -22 0
-6 22 273 0
-272 274 0
-273 274 0
-274 272 273 0
-275 -5 0
-275 21 0
5 -21 275 0
-276 5 0
-276 -21 0
-5 21 276 0
-275 277 0
-276 277 0
-277 275 276 0
-8 -278 0
8 278 0
-278 279 0
-24 279 0
-279 278 24 0
-7 -280 0
7 280 0
-280 281 0
-23 281 0
-281 280 23 0
-6 -282 0
6 282 0
-282 283 0
-22 283 0
-283 282 22 0
-5 -284 0
5 284 0
-284 285 0
-21 285 0
-285 284 21 0
-286 -8 0
-286 24 0
8 -24 286 0
-287 8 0
-287 -24 0
-8 24 287 0
-286 288 0
-287 288 0
-288 286 287 0
-289 -288 0
-289 -270 0
-289 -274 0
-289 -277 0
288 270 274 277 289 0
-290 -11 0
-290 27 0
11 -27 290 0
-291 11 0
-291 -27 0
-11 27 291 0
-290 292 0
-291 292 0
-292 290 291 0
-293 -10 0
-293 26 0
10 -26 293 0
-294 10 0
-294 -26 0
-10 26 294 0
-293 295 0
-294 295 0
-295 293 294 0
-296 -9 0
-296 25 0
9 -25 296 0
-297 9 0
-297 -25 0
-9 25 297 0
-296 298 0
-297 298 0
-298 296 297 0
-12 -299 0
12 299 0
-299 300 0
-28 300 0
-300 299 28 0
-11 -301 0
11 301 0
-301 302 0
-27 302 0
-302 301 27 0
-10 -303 0
10 303 0
-303 304 0
-26 304 0
-304 303 26 0
-9 -305 0
9 305 0
-305 306 0
-25 306 0
-306 305 25 0
-307 -12 0
-307 28 0
12 -28 307 0
-308 12 0
-308 -28 0
-12 28 308 0
-307 309 0
-308 309 0
-309 307 308 0
-310 -309 0
-310 -292 0
-310 -295 0
-310 -298 0
309 292 295 298 310 0
-311 -167 267 0
-311 167 -267 0
311 -167 -267 0
311 167 267 0
-312 -166 266 0
-312 166 -266 0
312 -166 -266 0
312 166 266 0
-313 -162 262 0
-313 162 -262 0
313 -162 -262 0
313 162 262 0
-311 -312 -313 314 0
-314 311 0
-314 312 0
-314 313 0
-15 -174 -315 0
-15 174 315 0
15 -174 315 0
15 174 -315 0
-31 -175 -316 0
-31 175 316 0
31 -175 316 0
31 175 -316 0
-270 -176 -317 0
-270 176 317 0
270 -176 317 0
270 176 -317 0
-274 -177 -318 0
-274 177 318 0
274 -177 318 0
274 177 -318 0
-277 -178 -319 0
-277 178 319 0
277 -178 319 0
277 178 -319 0
-279 -179 -320 0
-279 179 320 0
279 -179 320 0
279 179 -320 0
-281 -180 -321 0
-281 180 321 0
281 -180 321 0
281 180 -321 0
-283 -181 -322 0
-283 181 322 0
283 -181 322 0
283 181 -322 0
-285 -182 -323 0
-285 182 323 0
285 -182 323 0
285 182 -323 0
-289 -183 -324 0
-289 183 324 0
289 -183 324 0
289 183 -324 0
-292 -184 -325 0
-292 184 325 0
292 -184 325 0
292 184 -325 0
-295 -185 -326 0
-295 185 326 0
295 -185 326 0
295 185 -326 0
-298 -186 -327 0
-298 186 327 0
298 -186 327 0
298 186 -327 0
-300 -187 -328 0
-300 187 328 0
300 -187 328 0
300 187 -328 0
-302 -188 -329 0
-302 188 329 0
302 -188 329 0
302 188 -329 0
-304 -189 -330 0
-304 189 330 0
304 -189 330 0
304 189 -330 0
-306 -190 -331 0
-306 190 331 0
306 -190 331 0
306 190 -331 0
-310 -191 -332 0
-310 191 332 0
310 -191 332 0
310 191 -332 0
315 316 317 318 319 320 321 322 323 324 325 326 327 328 329 330 331 332 314 0
1197 0
-11 -1198 0
27 -1198 0
11 -27 1198 0
11 -1199 0
-27 -1199 0
-11 27 1199 0
-33 -1200 0
-34 -1200 0
33 34 1200 0
-10 -1201 0
26 -1201 0
10 -26 1201 0
10 -1202 0
-26 -1202 0
-10 26 1202 0
-36 -1203 0
-37 -1203 0
36 37 1203 0
-9 -1204 0
25 -1204 0
9 -25 1204 0
9 -1205 0
-25 -1205 0
-9 25 1205 0
-39 -1206 0
-40 -1206 0
39 40 1206 0
-28 -1207 0
-42 -1207 0
28 42 1207 0
-27 -1208 0
-44 -1208 0
27 44 1208 0
-26 -1209 0
-46 -1209 0
26 46 1209 0
-25 -1210 0
-48 -1210 0
25 48 1210 0
-41 -1211 0
-47 -1211 0
41 47 1211 0
-38 -1212 0
-41 -1212 0
38 41 1212 0
-45 -1213 0
1212 -1213 0
45 -1212 1213 0
-35 -1214 0
1212 -1214 0
35 -1212 1214 0
-43 -1215 0
1214 -1215 0
43 -1214 1215 0
-50 -1216 0
-51 -1216 0
50 51 1216 0
-52 -1217 0
-53 -1217 0
52 53 1217 0
1216 -1218 0
1217 -1218 0
-1216 -1217 1218 0
-12 -1219 0
28 -1219 0
12 -28 1219 0
12 -1220 0
-28 -1220 0
-12 28 1220 0
-55 -1221 0
-56 -1221 0
55 56 1221 0
-57 -1222 0
1214 -1222 0
57 -1214 1222 0
-54 -1223 0
-58 -1223 0
54 58 1223 0
-54 -1224 0
59 -1224 0
54 -59 1224 0
54 -1225 0
-59 -1225 0
-54 59 1225 0
-60 -1226 0
-61 -1226 0
60 61 1226 0
-7 -1227 0
23 -1227 0
7 -23 1227 0
7 -1228 0
-23 -1228 0
-7 23 1228 0
-63 -1229 0
-64 -1229 0
63 64 1229 0
-6 -1230 0
22 -1230 0
6 -22 1230 0
6 -1231 0
-22 -1231 0
-6 22 1231 0
-66 -1232 0
-67 -1232 0
66 67 1232 0
-5 -1233 0
21 -1233 0
5 -21 1233 0
5 -1234 0
-21 -1234 0
-5 21 1234 0
-69 -1235 0
-70 -1235 0
69 70 1235 0
-24 -1236 0
-72 -1236 0
24 72 1236 0
-23 -1237 0
-74 -1237 0
23 74 1237 0
-22 -1238 0
-76 -1238 0
22 76 1238 0
-21 -1239 0
-78 -1239 0
21 78 1239 0
-71 -1240 0
-77 -1240 0
71 77 1240 0
-68 -1241 0
-71 -1241 0
68 71 1241 0
-75 -1242 0
1241 -1242 0
75 -1241 1242 0
-65 -1243 0
1241 -1243 0
65 -1241 1243 0
-73 -1244 0
1243 -1244 0
73 -1243 1244 0
-80 -1245 0
-81 -1245 0
80 81 1245 0
-82 -1246 0
-83 -1246 0
82 83 1246 0
1245 -1247 0
1246 -1247 0
-1245 -1246 1247 0
-8 -1248 0
24 -1248 0
8 -24 1248 0
8 -1249 0
-24 -1249 0
-8 24 1249 0
-85 -1250 0
-86 -1250 0
85 86 1250 0
-87 -1251 0
1243 -1251 0
87 -1243 1251 0
-84 -1252 0
-88 -1252 0
84 88 1252 0
-84 -1253 0
89 -1253 0
84 -89 1253 0
84 -1254 0
-89 -1254 0
-84 89 1254 0
-90 -1255 0
-91 -1255 0
90 91 1255 0
-3 -1256 0
19 -1256 0
3 -19 1256 0
3 -1257 0
-19 -1257 0
-3 19 1257 0
-93 -1258 0
-94 -1258 0
93 94 1258 0
-2 -1259 0
18 -1259 0
2 -18 1259 0
2 -1260 0
-18 -1260 0
-2 18 1260 0
-96 -1261 0
-97 -1261 0
96 97 1261 0
-1 -1262 0
17 -1262 0
1 -17 1262 0
1 -1263 0
-17 -1263 0
-1 17 1263 0
-99 -1264 0
-100 -1264 0
99 100 1264 0
-20 -1265 0
-102 -1265 0
20 102 1265 0
-19 -1266 0
-104 -1266 0
19 104 1266 0
-18 -1267 0
-106 -1267 0
18 106 1267 0
-17 -1268 0
-108 -1268 0
17 108 1268 0
-101 -1269 0
-107 -1269 0
101 107 1269 0
-98 -1270 0
-101 -1270 0
98 101 1270 0
-105 -1271 0
1270 -1271 0
105 -1270 1271 0
-95 -1272 0
1270 -1272 0
95 -1270 1272 0
-103 -1273 0
1272 -1273 0
103 -1272 1273 0
-110 -1274 0
-111 -1274 0
110 111 1274 0
-112 -1275 0
-113 -1275 0
112 113 1275 0
1274 -1276 0
1275 -1276 0
-1274 -1275 1276 0
-4 -1277 0
20 -1277 0
4 -20 1277 0
4 -1278 0
-20 -1278 0
-4 20 1278 0
-115 -1279 0
-116 -1279 0
115 116 1279 0
-117 -1280 0
1272 -1280 0
117 -1272 1280 0
-114 -1281 0
-118 -1281 0
114 118 1281 0
-114 -1282 0
119 -1282 0
114 -119 1282 0
114 -1283 0
-119 -1283 0
-114 119 1283 0
-120 -1284 0
-121 -1284 0
120 121 1284 0
-15 -1285 0
31 -1285 0
15 -31 1285 0
15 -1286 0
-31 -1286 0
-15 31 1286 0
-123 -1287 0
-124 -1287 0
123 124 1287 0
-14 -1288 0
30 -1288 0
14 -30 1288 0
14 -1289 0
-30 -1289 0
-14 30 1289 0
-126 -1290 0
-127 -1290 0
126 127 1290 0
-13 -1291 0
29 -1291 0
13 -29 1291 0
13 -1292 0
-29 -1292 0
-13 29 1292 0
-129 -1293 0
-130 -1293 0
129 130 1293 0
-32 -1294 0
-132 -1294 0
32 132 1294 0
-31 -1295 0
-134 -1295 0
31 134 1295 0
-30 -1296 0
-136 -1296 0
30 136 1296 0
-29 -1297 0
-138 -1297 0
29 138 1297 0
-131 -1298 0
-137 -1298 0
131 137 1298 0
-128 -1299 0
-131 -1299 0
128 131 1299 0
-135 -1300 0
1299 -1300 0
135 -1299 1300 0
-125 -1301 0
1299 -1301 0
125 -1299 1301 0
-133 -1302 0
1301 -1302 0
133 -1301 1302 0
-140 -1303 0
-141 -1303 0
140 141 1303 0
-142 -1304 0
-143 -1304 0
142 143 1304 0
1303 -1305 0
1304 -1305 0
-1303 -1304 1305 0
-16 -1306 0
32 -1306 0
16 -32 1306 0
16 -1307 0
-32 -1307 0
-16 32 1307 0
-145 -1308 0
-146 -1308 0
145 146 1308 0
-147 -1309 0
1301 -1309 0
147 -1301 1309 0
-144 -1310 0
-148 -1310 0
144 148 1310 0
-149 -1311 0
-150 -1311 0
149 150 1311 0
-59 -1312 0
-152 -1312 0
59 152 1312 0
-89 -1313 0
-154 -1313 0
89 154 1313 0
-119 -1314 0
-156 -1314 0
119 156 1314 0
-122 -1315 0
-155 -1315 0
122 155 1315 0
-92 -1316 0
-122 -1316 0
92 122 1316 0
-153 -1317 0
1316 -1317 0
153 -1316 1317 0
-62 -1318 0
1316 -1318 0
62 -1316 1318 0
-151 -1319 0
1318 -1319 0
151 -1318 1319 0
-158 -1320 0
-159 -1320 0
158 159 1320 0
-160 -1321 0
-161 -1321 0
160 161 1321 0
1320 -1322 0
1321 -1322 0
-1320 -1321 1322 0
-144 -1323 0
149 -1323 0
144 -149 1323 0
144 -1324 0
-149 -1324 0
-144 149 1324 0
-163 -1325 0
-164 -1325 0
163 164 1325 0
-165 -1326 0
1318 -1326 0
165 -1318 1326 0
-162 -1327 0
-166 -1327 0
162 166 1327 0
-192 -1328 0
-193 -1328 0
192 193 1328 0
-195 -1329 0
-196 -1329 0
195 196 1329 0
-198 -1330 0
-199 -1330 0
198 199 1330 0
-201 -1331 0
-202 -1331 0
201 202 1331 0
-204 -1332 0
-205 -1332 0
204 205 1332 0
-20 -1333 0
-207 -1333 0
20 207 1333 0
-19 -1334 0
-209 -1334 0
19 209 1334 0
-18 -1335 0
-211 -1335 0
18 211 1335 0
-17 -1336 0
-213 -1336 0
17 213 1336 0
-206 -1337 0
-212 -1337 0
206 212 1337 0
-203 -1338 0
-206 -1338 0
203 206 1338 0
-210 -1339 0
1338 -1339 0
210 -1338 1339 0
-200 -1340 0
1338 -1340 0
200 -1338 1340 0
-208 -1341 0
1340 -1341 0
208 -1340 1341 0
-215 -1342 0
-216 -1342 0
215 216 1342 0
-217 -1343 0
-218 -1343 0
217 218 1343 0
1342 -1344 0
1343 -1344 0
-1342 -1343 1344 0
-220 -1345 0
-221 -1345 0
220 221 1345 0
-222 -1346 0
1340 -1346 0
222 -1340 1346 0
-219 -1347 0
-223 -1347 0
219 223 1347 0
-219 -1348 0
224 -1348 0
219 -224 1348 0
219 -1349 0
-224 -1349 0
-219 224 1349 0
-225 -1350 0
-226 -1350 0
225 226 1350 0
-228 -1351 0
-229 -1351 0
228 229 1351 0
-231 -1352 0
-232 -1352 0
231 232 1352 0
-32 -1353 0
-234 -1353 0
32 234 1353 0
-31 -1354 0
-236 -1354 0
31 236 1354 0
-30 -1355 0
-238 -1355 0
30 238 1355 0
-29 -1356 0
-240 -1356 0
29 240 1356 0
-233 -1357 0
-239 -1357 0
233 239 1357 0
-230 -1358 0
-233 -1358 0
230 233 1358 0
-237 -1359 0
1358 -1359 0
237 -1358 1359 0
-242 -1360 0
-243 -1360 0
242 243 1360 0
-244 -1361 0
-245 -1361 0
244 245 1361 0
1360 -1362 0
1361 -1362 0
-1360 -1361 1362 0
-247 -1363 0
-248 -1363 0
247 248 1363 0
-246 -1364 0
-250 -1364 0
246 250 1364 0
-251 -1365 0
-252 -1365 0
251 252 1365 0
193 -1366 0
-254 -1366 0
-193 254 1366 0
-224 -1367 0
-256 -1367 0
224 256 1367 0
-197 -1368 0
-227 -1368 0
197 227 1368 0
-255 -1369 0
1368 -1369 0
255 -1368 1369 0
-194 -1370 0
1368 -1370 0
194 -1368 1370 0
-253 -1371 0
1370 -1371 0
253 -1370 1371 0
-258 -1372 0
-259 -1372 0
258 259 1372 0
-260 -1373 0
-261 -1373 0
260 261 1373 0
1372 -1374 0
1373 -1374 0
-1372 -1373 1374 0
-246 -1375 0
251 -1375 0
246 -251 1375 0
246 -1376 0
-251 -1376 0
-246 251 1376 0
-263 -1377 0
-264 -1377 0
263 264 1377 0
-265 -1378 0
1370 -1378 0
265 -1370 1378 0
-262 -1379 0
-266 -1379 0
262 266 1379 0
-268 -1380 0
-269 -1380 0
268 269 1380 0
-22 -1381 0
-271 -1381 0
22 271 1381 0
-275 -1382 0
-276 -1382 0
275 276 1382 0
-24 -1383 0
-278 -1383 0
24 278 1383 0
-23 -1384 0
-280 -1384 0
23 280 1384 0
-22 -1385 0
-282 -1385 0
22 282 1385 0
-21 -1386 0
-284 -1386 0
21 284 1386 0
-286 -1387 0
-287 -1387 0
286 287 1387 0
-290 -1388 0
-291 -1388 0
290 291 1388 0
-293 -1389 0
-294 -1389 0
293 294 1389 0
-296 -1390 0
-297 -1390 0
296 297 1390 0
-28 -1391 0
-299 -1391 0
28 299 1391 0
-27 -1392 0
-301 -1392 0
27 301 1392 0
-26 -1393 0
-303 -1393 0
26 303 1393 0
-25 -1394 0
-305 -1394 0
25 305 1394 0
-307 -1395 0
-308 -1395 0
307 308 1395 0
-292 -1396 0
-295 -1396 0
292 295 1396 0
-298 -1397 0
-309 -1397 0
298 309 1397 0
1396 -1398 0
1397 -1398 0
-1396 -1397 1398 0
167 -1399 0
-267 -1399 0
-167 267 1399 0
-167 -1400 0
267 -1400 0
167 -267 1400 0
-1399 -1401 0
-1400 -1401 0
1399 1400 1401 0
166 -1402 0
-266 -1402 0
-166 266 1402 0
-166 -1403 0
266 -1403 0
166 -266 1403 0
-1402 -1404 0
-1403 -1404 0
1402 1403 1404 0
162 -1405 0
-262 -1405 0
-162 262 1405 0
-162 -1406 0
262 -1406 0
162 -262 1406 0
-1405 -1407 0
-1406 -1407 0
1405 1406 1407 0
311 -1408 0
312 -1408 0
-311 -312 1408 0
313 -1409 0
1408 -1409 0
-313 -1408 1409 0
-15 -1410 0
-174 -1410 0
15 174 1410 0
15 -1411 0
174 -1411 0
-15 -174 1411 0
-1410 -1412 0
-1411 -1412 0
1410 1411 1412 0
-31 -1413 0
-175 -1413 0
31 175 1413 0
31 -1414 0
175 -1414 0
-31 -175 1414 0
-1413 -1415 0
-1414 -1415 0
1413 1414 1415 0
-176 -1416 0
-270 -1416 0
176 270 1416 0
176 -1417 0
270 -1417 0
-176 -270 1417 0
-1416 -1418 0
-1417 -1418 0
1416 1417 1418 0
-272 -1419 0
-1231 -1419 0
272 1231 1419 0
-177 -1420 0
-1419 -1420 0
177 1419 1420 0
-1233 -1421 0
-1234 -1421 0
1233 1234 1421 0
178 -1422 0
-277 -1422 0
-178 277 1422 0
1421 -1423 0
1422 -1423 0
-1421 -1422 1423 0
-178 -1424 0
277 -1424 0
178 -277 1424 0
-1421 -1425 0
1424 -1425 0
1421 -1424 1425 0
-1423 -1426 0
-1425 -1426 0
1423 1425 1426 0
-179 -1427 0
-279 -1427 0
179 279 1427 0
179 -1428 0
279 -1428 0
-179 -279 1428 0
-1427 -1429 0
-1428 -1429 0
1427 1428 1429 0
-180 -1430 0
-1228 -1430 0
180 1228 1430 0
180 -1431 0
1228 -1431 0
-180 -1228 1431 0
-1430 -1432 0
-1431 -1432 0
1430 1431 1432 0
-181 -1433 0
283 -1433 0
181 -283 1433 0
-1231 -1434 0
-1433 -1434 0
1231 1433 1434 0
181 -1435 0
-283 -1435 0
-181 283 1435 0
1231 -1436 0
-1435 -1436 0
-1231 1435 1436 0
-1434 -1437 0
-1436 -1437 0
1434 1436 1437 0
-182 -1438 0
285 -1438 0
182 -285 1438 0
-1234 -1439 0
-1438 -1439 0
1234 1438 1439 0
182 -1440 0
-285 -1440 0
-182 285 1440 0
1234 -1441 0
-1440 -1441 0
-1234 1440 1441 0
-1439 -1442 0
-1441 -1442 0
1439 1441 1442 0
-183 -1443 0
-289 -1443 0
183 289 1443 0
183 -1444 0
289 -1444 0
-183 -289 1444 0
-1443 -1445 0
-1444 -1445 0
1443 1444 1445 0
-184 -1446 0
292 -1446 0
184 -292 1446 0
27 -1447 0
33 -1447 0
-27 -33 1447 0
-1199 -1448 0
-1447 -1448 0
1199 1447 1448 0
-1446 -1449 0
-1448 -1449 0
1446 1448 1449 0
184 -1450 0
-292 -1450 0
-184 292 1450 0
-1198 -1451 0
-1199 -1451 0
1198 1199 1451 0
-1450 -1452 0
1451 -1452 0
1450 -1451 1452 0
-1449 -1453 0
-1452 -1453 0
1449 1452 1453 0
-293 -1454 0
-1202 -1454 0
293 1202 1454 0
295 -1455 0
-1454 -1455 0
-295 1454 1455 0
-185 -1456 0
-1455 -1456 0
185 1455 1456 0
-295 -1457 0
-1202 -1457 0
295 1202 1457 0
185 -1458 0
-1457 -1458 0
-185 1457 1458 0
-26 -1459 0
293 -1459 0
26 -293 1459 0
-1458 -1460 0
-1459 -1460 0
1458 1459 1460 0
-1456 -1461 0
1460 -1461 0
1456 -1460 1461 0
-186 -1462 0
-298 -1462 0
186 298 1462 0
186 -1463 0
298 -1463 0
-186 -298 1463 0
-1462 -1464 0
-1463 -1464 0
1462 1463 1464 0
-187 -1465 0
-300 -1465 0
187 300 1465 0
187 -1466 0
300 -1466 0
-187 -300 1466 0
-1465 -1467 0
-1466 -1467 0
1465 1466 1467 0
-27 -1468 0
188 -1468 0
27 -188 1468 0
-302 -1469 0
1468 -1469 0
302 -1468 1469 0
-188 -1470 0
302 -1470 0
188 -302 1470 0
-1469 -1471 0
-1470 -1471 0
1469 1470 1471 0
-189 -1472 0
-1202 -1472 0
189 1202 1472 0
189 -1473 0
1202 -1473 0
-189 -1202 1473 0
-1472 -1474 0
-1473 -1474 0
1472 1473 1474 0
-190 -1475 0
-1205 -1475 0
190 1205 1475 0
190 -1476 0
1205 -1476 0
-190 -1205 1476 0
-1475 -1477 0
-1476 -1477 0
1475 1476 1477 0
-191 -1478 0
-310 -1478 0
191 310 1478 0
191 -1479 0
310 -1479 0
-191 -310 1479 0
-1478 -1480 0
-1479 -1480 0
1478 1479 1480 0
